SCIP version 5.0.0 [precision: 8 byte] [memory: block] [mode: optimized] [LP solver: NONE] [GitHash: 3bbd232]
Copyright (C) 2002-2017 Konrad-Zuse-Zentrum fuer Informationstechnik Berlin (ZIB)

External codes: 
  Readline EditLine w  GNU library for command line editing (gnu.org/s/readline)
  CppAD 20160000.1     Algorithmic Differentiation of C++ algorithms developed by B. Bell (www.coin-or.org/CppAD)
  ZLIB 1.2.5           General purpose compression library by J. Gailly and M. Adler (zlib.net)
  GMP 6.1.2            GNU Multiple Precision Arithmetic Library developed by T. Granlund (gmplib.org)

user parameter file <scip.set> not found - using default parameters

read problem <../../Split_data/output/statH/9/4_sample_statH.logreg>
============

File name	:	../../Split_data/output/statH/9/4_sample_statH.logreg
Problem name 	:	4_sample_statH
Number of data	:	216
Number of var	:	25
The given data has linear dependence
7 sets of column vector are linearly dependent:
{ 3 4}, { 5 6 7 8}, { 11 12}, { 13 14 15}, { 17 18}, { 20 21 22}, { 24 25 26}, 

[dim=1] time: 0.008194
[dim=2] time: 0.013743
[dim=3] time: 0.018838
[dim=4] time: 0.022844
[dim=5] time: 0.026713
[dim=6] time: 0.030658
[dim=7] time: 0.034437
[dim=8] time: 0.038003
[dim=9] time: 0.04133
[dim=10] time: 0.044455
[dim=11] Time of forward = 0.047761sec.
AIC: 151.033
k: 10

[dim=18] time: 0.009284
[dim=17] time: 0.013146
[dim=16] time: 0.01616
[dim=15] time: 0.019917
[dim=14] time: 0.022929
[dim=13] time: 0.026045
[dim=12] time: 0.028525
[dim=11] time: 0.031499
[dim=10] Time of backward = 0.034018sec.
AIC: 154.352
k: 11
